; DUP3 DUP3 DUP3 SWAP1 SLOAD SWAP1 => DUP3 DUP3 SLOAD DUP3
(set-option :produce-proofs true)
; 
(set-info :status unknown)
(declare-fun storage_t ((_ BitVec 256) (_ BitVec 256) (_ BitVec 256) (_ BitVec 256) Int (_ BitVec 256)) (_ BitVec 256))
(declare-fun storage_s ((_ BitVec 256) (_ BitVec 256) (_ BitVec 256) (_ BitVec 256) Int (_ BitVec 256)) (_ BitVec 256))
(declare-fun exc_halt_t (Int) Bool)
(declare-fun exc_halt_s (Int) Bool)
(declare-fun stack_t ((_ BitVec 256) (_ BitVec 256) (_ BitVec 256) (_ BitVec 256) Int (_ BitVec 6)) (_ BitVec 256))
(declare-fun stack_s ((_ BitVec 256) (_ BitVec 256) (_ BitVec 256) (_ BitVec 256) Int (_ BitVec 6)) (_ BitVec 256))
(declare-fun sc_t (Int) (_ BitVec 6))
(declare-fun sc_s (Int) (_ BitVec 6))
(declare-fun used_gas_t ((_ BitVec 256) (_ BitVec 256) (_ BitVec 256) (_ BitVec 256) Int) Int)
(declare-fun used_gas_s ((_ BitVec 256) (_ BitVec 256) (_ BitVec 256) (_ BitVec 256) Int) Int)
(assert
 (exists ((x_0 (_ BitVec 256)) (x_1 (_ BitVec 256)) (x_2 (_ BitVec 256)) (x_SLOAD_0 (_ BitVec 256)) )(let (($x10304 (forall ((w (_ BitVec 256)) )(let ((?x9719 (storage_t x_0 x_1 x_2 x_SLOAD_0 4 w)))
 (let ((?x7991 (storage_s x_0 x_1 x_2 x_SLOAD_0 6 w)))
 (= ?x7991 ?x9719))))
 ))
 (let (($x7854 (exc_halt_t 4)))
 (let (($x7121 (exc_halt_s 6)))
 (let (($x8981 (= $x7121 $x7854)))
 (let (($x1782 (forall ((n (_ BitVec 6)) )(let ((?x5681 (stack_t x_0 x_1 x_2 x_SLOAD_0 4 n)))
 (let ((?x11123 (stack_s x_0 x_1 x_2 x_SLOAD_0 6 n)))
 (let (($x5506 (= ?x11123 ?x5681)))
 (let ((?x7495 (sc_t 4)))
 (let (($x802 (bvsle ?x7495 n)))
 (or $x802 $x5506)))))))
 ))
 (let ((?x7495 (sc_t 4)))
 (let ((?x9114 (sc_s 6)))
 (let (($x8373 (= ?x9114 ?x7495)))
 (let ((?x10086 (used_gas_t x_0 x_1 x_2 x_SLOAD_0 0)))
 (let ((?x5126 (used_gas_s x_0 x_1 x_2 x_SLOAD_0 0)))
 (let (($x8205 (= ?x5126 ?x10086)))
 (let (($x7704 (forall ((w (_ BitVec 256)) )(let ((?x6425 (storage_t x_0 x_1 x_2 x_SLOAD_0 0 w)))
 (let ((?x6811 (storage_s x_0 x_1 x_2 x_SLOAD_0 0 w)))
 (= ?x6811 ?x6425))))
 ))
 (let (($x56 (exc_halt_t 0)))
 (let (($x57 (exc_halt_s 0)))
 (let (($x58 (= $x57 $x56)))
 (let (($x11859 (forall ((n (_ BitVec 6)) )(let ((?x63 (sc_t 0)))
 (let (($x7941 (bvsle ?x63 n)))
 (let ((?x9678 (stack_t x_0 x_1 x_2 x_SLOAD_0 0 n)))
 (let ((?x2344 (stack_s x_0 x_1 x_2 x_SLOAD_0 0 n)))
 (let (($x285 (= ?x2344 ?x9678)))
 (or $x285 $x7941)))))))
 ))
 (let ((?x63 (sc_t 0)))
 (let ((?x72 (sc_s 0)))
 (let (($x73 (= ?x72 ?x63)))
 (let (($x11636 (exc_halt_t 3)))
 (let (($x9009 (not (= ((_ extract 6 6) (bvadd (_ bv1 7) (concat (_ bv0 1) (sc_t 3)))) (_ bv0 1)))))
 (let (($x3045 (forall ((w (_ BitVec 256)) )(let ((?x9434 (storage_t x_0 x_1 x_2 x_SLOAD_0 3 w)))
 (let ((?x9719 (storage_t x_0 x_1 x_2 x_SLOAD_0 4 w)))
 (= ?x9719 ?x9434))))
 ))
 (let (($x9366 (forall ((n (_ BitVec 6)) )(let ((?x4092 (stack_t x_0 x_1 x_2 x_SLOAD_0 3 n)))
 (let ((?x5681 (stack_t x_0 x_1 x_2 x_SLOAD_0 4 n)))
 (or (= ?x5681 ?x4092) (bvsle (bvadd (_ bv61 6) (sc_t 3)) n)))))
 ))
 (let (($x5997 (= ?x7495 (bvadd (_ bv1 6) (sc_t 3)))))
 (let (($x11025 (= (used_gas_t x_0 x_1 x_2 x_SLOAD_0 4) (+ 3 (used_gas_t x_0 x_1 x_2 x_SLOAD_0 3)))))
 (let ((?x9921 (sc_t 3)))
 (let ((?x2847 (bvadd (_ bv63 6) ?x9921)))
 (let ((?x787 (stack_t x_0 x_1 x_2 x_SLOAD_0 3 ?x2847)))
 (let (($x11271 (= (stack_t x_0 x_1 x_2 x_SLOAD_0 4 (bvadd (_ bv62 6) ?x9921)) (stack_t x_0 x_1 x_2 x_SLOAD_0 3 (bvadd (_ bv62 6) ?x9921)))))
 (let ((?x2375 (bvadd (_ bv61 6) ?x9921)))
 (let ((?x11049 (stack_t x_0 x_1 x_2 x_SLOAD_0 3 ?x2375)))
 (let (($x2319 (= $x11636 (or (exc_halt_t 2) (not (bvsle (_ bv0 6) (bvadd (_ bv63 6) (sc_t 2))))))))
 (let (($x2652 (forall ((w (_ BitVec 256)) )(let ((?x2204 (storage_t x_0 x_1 x_2 x_SLOAD_0 2 w)))
 (let ((?x9434 (storage_t x_0 x_1 x_2 x_SLOAD_0 3 w)))
 (= ?x9434 ?x2204))))
 ))
 (let (($x260 (forall ((n (_ BitVec 6)) )(let ((?x11248 (sc_t 2)))
 (let ((?x8411 (bvadd (_ bv63 6) ?x11248)))
 (let (($x11340 (bvsle ?x8411 n)))
 (let ((?x1861 (stack_t x_0 x_1 x_2 x_SLOAD_0 2 n)))
 (let ((?x4092 (stack_t x_0 x_1 x_2 x_SLOAD_0 3 n)))
 (or (= ?x4092 ?x1861) $x11340)))))))
 ))
 (let ((?x4563 (used_gas_t x_0 x_1 x_2 x_SLOAD_0 3)))
 (let ((?x11248 (sc_t 2)))
 (let ((?x8411 (bvadd (_ bv63 6) ?x11248)))
 (let ((?x6535 (stack_t x_0 x_1 x_2 x_SLOAD_0 2 ?x8411)))
 (let (($x10074 (not (= ((_ extract 6 6) (bvadd (_ bv1 7) (concat (_ bv0 1) (sc_t 1)))) (_ bv0 1)))))
 (let (($x4852 (exc_halt_t 1)))
 (let (($x8371 (exc_halt_t 2)))
 (let (($x8667 (forall ((w (_ BitVec 256)) )(let ((?x224 (storage_t x_0 x_1 x_2 x_SLOAD_0 1 w)))
 (let ((?x2204 (storage_t x_0 x_1 x_2 x_SLOAD_0 2 w)))
 (= ?x2204 ?x224))))
 ))
 (let (($x870 (forall ((n (_ BitVec 6)) )(let ((?x1907 (stack_t x_0 x_1 x_2 x_SLOAD_0 1 n)))
 (let ((?x1861 (stack_t x_0 x_1 x_2 x_SLOAD_0 2 n)))
 (or (bvsle (bvadd (_ bv61 6) (sc_t 1)) n) (= ?x1861 ?x1907)))))
 ))
 (let (($x8609 (= ?x11248 (bvadd (_ bv1 6) (sc_t 1)))))
 (let ((?x10687 (used_gas_t x_0 x_1 x_2 x_SLOAD_0 2)))
 (let ((?x9666 (sc_t 1)))
 (let ((?x11596 (bvadd (_ bv63 6) ?x9666)))
 (let ((?x1956 (stack_t x_0 x_1 x_2 x_SLOAD_0 1 ?x11596)))
 (let (($x1615 (= (stack_t x_0 x_1 x_2 x_SLOAD_0 2 (bvadd (_ bv62 6) ?x9666)) (stack_t x_0 x_1 x_2 x_SLOAD_0 1 (bvadd (_ bv62 6) ?x9666)))))
 (let ((?x11286 (bvadd (_ bv61 6) ?x9666)))
 (let ((?x11640 (stack_t x_0 x_1 x_2 x_SLOAD_0 1 ?x11286)))
 (let (($x5973 (not (= ((_ extract 6 6) (bvadd (_ bv1 7) (concat (_ bv0 1) ?x63))) (_ bv0 1)))))
 (let (($x5834 (forall ((w (_ BitVec 256)) )(let ((?x6425 (storage_t x_0 x_1 x_2 x_SLOAD_0 0 w)))
 (let ((?x224 (storage_t x_0 x_1 x_2 x_SLOAD_0 1 w)))
 (= ?x224 ?x6425))))
 ))
 (let (($x7781 (forall ((n (_ BitVec 6)) )(let ((?x9678 (stack_t x_0 x_1 x_2 x_SLOAD_0 0 n)))
 (let ((?x1907 (stack_t x_0 x_1 x_2 x_SLOAD_0 1 n)))
 (or (= ?x1907 ?x9678) (bvsle (bvadd (_ bv61 6) (sc_t 0)) n)))))
 ))
 (let (($x2852 (= ?x9666 (bvadd (_ bv1 6) ?x63))))
 (let (($x7956 (= (stack_t x_0 x_1 x_2 x_SLOAD_0 1 (bvadd (_ bv63 6) ?x63)) (stack_t x_0 x_1 x_2 x_SLOAD_0 0 (bvadd (_ bv63 6) ?x63)))))
 (let (($x2689 (= (stack_t x_0 x_1 x_2 x_SLOAD_0 1 (bvadd (_ bv62 6) ?x63)) (stack_t x_0 x_1 x_2 x_SLOAD_0 0 (bvadd (_ bv62 6) ?x63)))))
 (let ((?x1666 (bvadd (_ bv61 6) ?x63)))
 (let ((?x1903 (stack_t x_0 x_1 x_2 x_SLOAD_0 0 ?x1666)))
 (let (($x9460 (= $x7121 (or (exc_halt_s 5) (not (bvsle (_ bv0 6) (bvadd (_ bv62 6) (sc_s 5))))))))
 (let (($x6588 (forall ((w (_ BitVec 256)) )(let ((?x1739 (storage_s x_0 x_1 x_2 x_SLOAD_0 5 w)))
 (let ((?x7991 (storage_s x_0 x_1 x_2 x_SLOAD_0 6 w)))
 (= ?x7991 ?x1739))))
 ))
 (let (($x221 (forall ((n (_ BitVec 6)) )(let ((?x8326 (stack_s x_0 x_1 x_2 x_SLOAD_0 5 n)))
 (let ((?x11123 (stack_s x_0 x_1 x_2 x_SLOAD_0 6 n)))
 (let ((?x4319 (sc_s 5)))
 (let ((?x2340 (bvadd (_ bv62 6) ?x4319)))
 (let (($x2989 (bvsle ?x2340 n)))
 (or $x2989 (= ?x11123 ?x8326))))))))
 ))
 (let ((?x4319 (sc_s 5)))
 (let (($x9477 (= ?x9114 ?x4319)))
 (let (($x10849 (= (used_gas_s x_0 x_1 x_2 x_SLOAD_0 6) (+ 3 (used_gas_s x_0 x_1 x_2 x_SLOAD_0 5)))))
 (let ((?x8441 (bvadd (_ bv63 6) ?x4319)))
 (let ((?x10041 (stack_s x_0 x_1 x_2 x_SLOAD_0 5 ?x8441)))
 (let (($x6282 (= (stack_s x_0 x_1 x_2 x_SLOAD_0 6 (bvadd (_ bv63 6) ?x9114)) (stack_s x_0 x_1 x_2 x_SLOAD_0 5 (bvadd (_ bv62 6) ?x4319)))))
 (let (($x1862 (exc_halt_s 5)))
 (let (($x4653 (= $x1862 (or (exc_halt_s 4) (not (bvsle (_ bv0 6) (bvadd (_ bv63 6) (sc_s 4))))))))
 (let (($x2997 (forall ((w (_ BitVec 256)) )(let ((?x6187 (storage_s x_0 x_1 x_2 x_SLOAD_0 4 w)))
 (let ((?x1739 (storage_s x_0 x_1 x_2 x_SLOAD_0 5 w)))
 (= ?x1739 ?x6187))))
 ))
 (let (($x9917 (forall ((n (_ BitVec 6)) )(let ((?x11997 (stack_s x_0 x_1 x_2 x_SLOAD_0 4 n)))
 (let ((?x8326 (stack_s x_0 x_1 x_2 x_SLOAD_0 5 n)))
 (or (bvsle (bvadd (_ bv63 6) (sc_s 4)) n) (= ?x8326 ?x11997)))))
 ))
 (let ((?x9433 (sc_s 4)))
 (let (($x3496 (= ?x4319 ?x9433)))
 (let ((?x6365 (used_gas_s x_0 x_1 x_2 x_SLOAD_0 5)))
 (let ((?x3522 (bvadd (_ bv63 6) ?x9433)))
 (let ((?x3597 (stack_s x_0 x_1 x_2 x_SLOAD_0 4 ?x3522)))
 (let (($x9175 (exc_halt_s 4)))
 (let (($x9135 (= $x9175 (or (exc_halt_s 3) (not (bvsle (_ bv0 6) (bvadd (_ bv62 6) (sc_s 3))))))))
 (let (($x5740 (forall ((w (_ BitVec 256)) )(let ((?x382 (storage_s x_0 x_1 x_2 x_SLOAD_0 3 w)))
 (let ((?x6187 (storage_s x_0 x_1 x_2 x_SLOAD_0 4 w)))
 (= ?x6187 ?x382))))
 ))
 (let (($x10403 (forall ((n (_ BitVec 6)) )(let ((?x8840 (stack_s x_0 x_1 x_2 x_SLOAD_0 3 n)))
 (let ((?x11997 (stack_s x_0 x_1 x_2 x_SLOAD_0 4 n)))
 (let ((?x3851 (sc_s 3)))
 (let ((?x10134 (bvadd (_ bv62 6) ?x3851)))
 (let (($x946 (bvsle ?x10134 n)))
 (or $x946 (= ?x11997 ?x8840))))))))
 ))
 (let ((?x3851 (sc_s 3)))
 (let (($x6842 (= ?x9433 ?x3851)))
 (let ((?x3264 (used_gas_s x_0 x_1 x_2 x_SLOAD_0 4)))
 (let ((?x10883 (bvadd (_ bv63 6) ?x3851)))
 (let ((?x11198 (stack_s x_0 x_1 x_2 x_SLOAD_0 3 ?x10883)))
 (let (($x10052 (exc_halt_s 2)))
 (let (($x8886 (not (bvsle (_ bv0 6) (bvadd (_ bv61 6) (sc_s 2))))))
 (let (($x6300 (not (= ((_ extract 6 6) (bvadd (_ bv1 7) (concat (_ bv0 1) (sc_s 2)))) (_ bv0 1)))))
 (let (($x8103 (exc_halt_s 3)))
 (let (($x7799 (forall ((w (_ BitVec 256)) )(let ((?x2397 (storage_s x_0 x_1 x_2 x_SLOAD_0 2 w)))
 (let ((?x382 (storage_s x_0 x_1 x_2 x_SLOAD_0 3 w)))
 (= ?x382 ?x2397))))
 ))
 (let (($x3289 (forall ((n (_ BitVec 6)) )(let ((?x9140 (stack_s x_0 x_1 x_2 x_SLOAD_0 2 n)))
 (let ((?x8840 (stack_s x_0 x_1 x_2 x_SLOAD_0 3 n)))
 (let ((?x2272 (sc_s 2)))
 (let ((?x270 (bvadd (_ bv61 6) ?x2272)))
 (let (($x9553 (bvsle ?x270 n)))
 (or $x9553 (= ?x8840 ?x9140))))))))
 ))
 (let (($x1670 (= ?x3851 (bvadd (_ bv1 6) (sc_s 2)))))
 (let ((?x11720 (used_gas_s x_0 x_1 x_2 x_SLOAD_0 3)))
 (let ((?x2272 (sc_s 2)))
 (let ((?x11206 (bvadd (_ bv63 6) ?x2272)))
 (let ((?x5212 (stack_s x_0 x_1 x_2 x_SLOAD_0 2 ?x11206)))
 (let (($x6235 (= (stack_s x_0 x_1 x_2 x_SLOAD_0 3 (bvadd (_ bv62 6) ?x2272)) (stack_s x_0 x_1 x_2 x_SLOAD_0 2 (bvadd (_ bv62 6) ?x2272)))))
 (let ((?x270 (bvadd (_ bv61 6) ?x2272)))
 (let ((?x8349 (stack_s x_0 x_1 x_2 x_SLOAD_0 2 ?x270)))
 (let (($x8780 (exc_halt_s 1)))
 (let (($x4531 (not (= ((_ extract 6 6) (bvadd (_ bv1 7) (concat (_ bv0 1) (sc_s 1)))) (_ bv0 1)))))
 (let (($x6117 (forall ((w (_ BitVec 256)) )(let ((?x2145 (storage_s x_0 x_1 x_2 x_SLOAD_0 1 w)))
 (let ((?x2397 (storage_s x_0 x_1 x_2 x_SLOAD_0 2 w)))
 (= ?x2397 ?x2145))))
 ))
 (let (($x4292 (forall ((n (_ BitVec 6)) )(let ((?x5170 (stack_s x_0 x_1 x_2 x_SLOAD_0 1 n)))
 (let ((?x9140 (stack_s x_0 x_1 x_2 x_SLOAD_0 2 n)))
 (or (= ?x9140 ?x5170) (bvsle (bvadd (_ bv61 6) (sc_s 1)) n)))))
 ))
 (let (($x9997 (= ?x2272 (bvadd (_ bv1 6) (sc_s 1)))))
 (let ((?x9523 (used_gas_s x_0 x_1 x_2 x_SLOAD_0 2)))
 (let ((?x154 (sc_s 1)))
 (let ((?x6093 (bvadd (_ bv63 6) ?x154)))
 (let ((?x7280 (stack_s x_0 x_1 x_2 x_SLOAD_0 1 ?x6093)))
 (let (($x11374 (= (stack_s x_0 x_1 x_2 x_SLOAD_0 2 (bvadd (_ bv62 6) ?x154)) (stack_s x_0 x_1 x_2 x_SLOAD_0 1 (bvadd (_ bv62 6) ?x154)))))
 (let ((?x7267 (bvadd (_ bv61 6) ?x154)))
 (let ((?x5919 (stack_s x_0 x_1 x_2 x_SLOAD_0 1 ?x7267)))
 (let (($x8549 (not (= ((_ extract 6 6) (bvadd (_ bv1 7) (concat (_ bv0 1) ?x72))) (_ bv0 1)))))
 (let (($x3876 (forall ((w (_ BitVec 256)) )(let ((?x6811 (storage_s x_0 x_1 x_2 x_SLOAD_0 0 w)))
 (let ((?x2145 (storage_s x_0 x_1 x_2 x_SLOAD_0 1 w)))
 (= ?x2145 ?x6811))))
 ))
 (let (($x4991 (forall ((n (_ BitVec 6)) )(let ((?x2344 (stack_s x_0 x_1 x_2 x_SLOAD_0 0 n)))
 (let ((?x5170 (stack_s x_0 x_1 x_2 x_SLOAD_0 1 n)))
 (or (= ?x5170 ?x2344) (bvsle (bvadd (_ bv61 6) (sc_s 0)) n)))))
 ))
 (let (($x4458 (= ?x154 (bvadd (_ bv1 6) ?x72))))
 (let (($x2152 (= (stack_s x_0 x_1 x_2 x_SLOAD_0 1 (bvadd (_ bv63 6) ?x72)) (stack_s x_0 x_1 x_2 x_SLOAD_0 0 (bvadd (_ bv63 6) ?x72)))))
 (let (($x7618 (= (stack_s x_0 x_1 x_2 x_SLOAD_0 1 (bvadd (_ bv62 6) ?x72)) (stack_s x_0 x_1 x_2 x_SLOAD_0 0 (bvadd (_ bv62 6) ?x72)))))
 (let ((?x3110 (bvadd (_ bv61 6) ?x72)))
 (let ((?x6919 (stack_s x_0 x_1 x_2 x_SLOAD_0 0 ?x3110)))
 (let (($x9198 (forall ((w (_ BitVec 256)) )(let (($x4813 (= w (stack_s x_0 x_1 x_2 x_SLOAD_0 4 (bvadd (_ bv63 6) (sc_s 4))))))
 (let ((?x6811 (storage_s x_0 x_1 x_2 x_SLOAD_0 0 w)))
 (= ?x6811 (ite $x4813 x_SLOAD_0 (_ bv0 256))))))
 ))
 (let (($x5018 (= ?x5126 0)))
 (let (($x4649 (not $x57)))
 (let (($x10867 (= (stack_s x_0 x_1 x_2 x_SLOAD_0 0 (_ bv2 6)) x_2)))
 (let (($x9065 (= (stack_s x_0 x_1 x_2 x_SLOAD_0 0 (_ bv1 6)) x_1)))
 (let (($x3393 (= (stack_s x_0 x_1 x_2 x_SLOAD_0 0 (_ bv0 6)) x_0)))
 (let (($x3887 (= ?x72 (_ bv3 6))))
 (and $x3887 $x3393 $x9065 $x10867 $x4649 $x5018 $x9198 (= ?x7280 ?x6919) (= (stack_s x_0 x_1 x_2 x_SLOAD_0 1 ?x3110) ?x6919) $x7618 $x2152 (= (used_gas_s x_0 x_1 x_2 x_SLOAD_0 1) (+ 3 ?x5126)) $x4458 $x4991 $x3876 (= $x8780 (or $x57 $x8549 (not (bvsle (_ bv0 6) ?x3110)))) (= ?x5212 ?x5919) (= (stack_s x_0 x_1 x_2 x_SLOAD_0 2 ?x7267) ?x5919) $x11374 (= (stack_s x_0 x_1 x_2 x_SLOAD_0 2 ?x6093) ?x7280) (= ?x9523 (+ 3 (used_gas_s x_0 x_1 x_2 x_SLOAD_0 1))) $x9997 $x4292 $x6117 (= $x10052 (or (not (bvsle (_ bv0 6) ?x7267)) $x4531 $x8780)) (= ?x11198 ?x8349) (= (stack_s x_0 x_1 x_2 x_SLOAD_0 3 ?x270) ?x8349) $x6235 (= (stack_s x_0 x_1 x_2 x_SLOAD_0 3 ?x11206) ?x5212) (= ?x11720 (+ 3 ?x9523)) $x1670 $x3289 $x7799 (= $x8103 (or $x6300 $x8886 $x10052)) (= ?x3597 (stack_s x_0 x_1 x_2 x_SLOAD_0 3 (bvadd (_ bv62 6) ?x3851))) (= (stack_s x_0 x_1 x_2 x_SLOAD_0 4 (bvadd (_ bv62 6) ?x9433)) ?x11198) (= ?x3264 (+ 3 ?x11720)) $x6842 $x10403 $x5740 $x9135 (= ?x10041 (storage_s x_0 x_1 x_2 x_SLOAD_0 4 ?x3597)) (= ?x6365 (+ 200 ?x3264)) $x3496 $x9917 $x2997 $x4653 $x6282 (= (stack_s x_0 x_1 x_2 x_SLOAD_0 6 (bvadd (_ bv62 6) ?x9114)) ?x10041) $x10849 $x9477 $x221 $x6588 $x9460 (= ?x1956 ?x1903) (= (stack_t x_0 x_1 x_2 x_SLOAD_0 1 ?x1666) ?x1903) $x2689 $x7956 (= (used_gas_t x_0 x_1 x_2 x_SLOAD_0 1) (+ 3 ?x10086)) $x2852 $x7781 $x5834 (= $x4852 (or $x56 $x5973 (not (bvsle (_ bv0 6) ?x1666)))) (= ?x6535 ?x11640) (= (stack_t x_0 x_1 x_2 x_SLOAD_0 2 ?x11286) ?x11640) $x1615 (= (stack_t x_0 x_1 x_2 x_SLOAD_0 2 ?x11596) ?x1956) (= ?x10687 (+ 3 (used_gas_t x_0 x_1 x_2 x_SLOAD_0 1))) $x8609 $x870 $x8667 (= $x8371 (or (not (bvsle (_ bv0 6) ?x11286)) $x4852 $x10074)) (= ?x787 (storage_t x_0 x_1 x_2 x_SLOAD_0 2 ?x6535)) (= ?x4563 (+ 200 ?x10687)) (= ?x9921 ?x11248) $x260 $x2652 $x2319 (= (stack_t x_0 x_1 x_2 x_SLOAD_0 4 (bvadd (_ bv63 6) ?x7495)) ?x11049) (= (stack_t x_0 x_1 x_2 x_SLOAD_0 4 ?x2375) ?x11049) $x11271 (= (stack_t x_0 x_1 x_2 x_SLOAD_0 4 ?x2847) ?x787) $x11025 $x5997 $x9366 $x3045 (= $x7854 (or (not (bvsle (_ bv0 6) ?x2375)) $x9009 $x11636)) $x73 $x11859 $x58 $x7704 $x8205 (not (and $x8373 $x1782 $x8981 $x10304)))))))))))))))))))))))))))))))))))))))))))))))))))))))))))))))))))))))))))))))))))))))))))))))))))))))))))))))))))))))))))))))))))
 )
(check-sat)
(get-proof)
